c A SAT instance generated from a 3-CNF formula that had 28 clauses and 7 variables
p cnf 7 28
-7 6 -5 0
4 -5 6 0
-5 1 7 0
-3 -4 5 0
-4 2 -7 0
6 -7 3 0
-4 -2 7 0
-7 -5 -1 0
-2 3 -5 0
3 -7 2 0
5 7 -2 0
-4 -7 6 0
-7 -1 -4 0
5 3 -1 0
-7 6 -1 0
3 -6 7 0
-4 -3 -1 0
-4 7 1 0
2 3 7 0
-5 -6 3 0
5 -6 -4 0
-1 -4 5 0
1 7 4 0
-3 -6 -4 0
-5 -6 -4 0
1 -6 3 0
4 -6 2 0
2 7 -4 0
